(set-logic QF_NRA)
(set-info :source |Benchmarks generated from hycomp (https://es-static.fbk.eu/tools/hycomp/). BMC instances of non-linear hybrid automata taken from: Alessandro Cimatti, Sergio Mover, Stefano Tonetta, A quantifier-free SMT encoding of non-linear hybrid automata, FMCAD 2012 and Alessandro Cimatti, Sergio Mover, Stefano Tonetta, Quantier-free encoding of invariants for Hybrid Systems, Formal Methods in System Design. This instance solves a BMC problem of depth 1 and uses the encoding obtained with quantifier elimination using redlog encoding. Contacts: Sergio Mover (mover@fbk.eu), Stefano Tonetta (tonettas@fbk.eu), Alessandro Cimatti (cimatti@fbk.eu).|)
(set-info :smt-lib-version 2.0)
(set-info :category "industrial")
(set-info :status unsat)
;; MathSAT API call trace
;; generated on Mon Mar 19 10:51:03 2012
(declare-fun b.EVENT.1__AT0 () Bool)
(declare-fun b.time__AT0 () Real)
(declare-fun b.speed_x__AT1 () Real)
(declare-fun b.speed_y__AT1 () Real)
(declare-fun b.y__AT0 () Real)
(declare-fun b.counter.0__AT0 () Bool)
(declare-fun b.counter.1__AT0 () Bool)
(declare-fun g__AT0 () Real)
(declare-fun b.y__AT2 () Real)
(declare-fun b.counter.2__AT0 () Bool)
(declare-fun b.time__AT1 () Real)
(declare-fun b.delta__AT1 () Real)
(declare-fun b.delta__AT0 () Real)
(declare-fun b.event_is_timed__AT0 () Bool)
(declare-fun b.EVENT.0__AT0 () Bool)
(declare-fun b.y__AT1 () Real)
(declare-fun b.counter.0__AT1 () Bool)
(declare-fun b.counter.1__AT1 () Bool)
(declare-fun b.counter.2__AT1 () Bool)
(declare-fun speed_loss__AT0 () Real)
(declare-fun b.counter.3__AT1 () Bool)
(declare-fun b.EVENT.0__AT1 () Bool)
(declare-fun b.EVENT.1__AT1 () Bool)
(declare-fun b.counter.3__AT0 () Bool)
(declare-fun b.x__AT0 () Real)
(declare-fun b.speed_y__AT0 () Real)
(declare-fun b.speed_x__AT0 () Real)
(declare-fun b.x__AT1 () Real)
(declare-fun b.event_is_timed__AT1 () Bool)
(assert (let ((.def_434 (= b.y__AT1 b.y__AT2)))
(let ((.def_435 (not .def_434)))
(let ((.def_348 (* g__AT0 b.delta__AT1)))
(let ((.def_422 (<= b.speed_y__AT1 .def_348)))
(let ((.def_423 (not .def_422)))
(let ((.def_351 (* 2.0 b.speed_y__AT1)))
(let ((.def_352 (* b.delta__AT1 .def_351)))
(let ((.def_349 (* b.delta__AT1 .def_348)))
(let ((.def_350 (* (- 1.0) .def_349)))
(let ((.def_353 (+ .def_350 .def_352)))
(let ((.def_354 (* 2.0 b.y__AT1)))
(let ((.def_356 (+ .def_354 .def_353)))
(let ((.def_414 (= .def_356 0.0 )))
(let ((.def_415 (not .def_414)))
(let ((.def_424 (or .def_415 .def_423)))
(let ((.def_119 (* 2.0 g__AT0)))
(let ((.def_401 (* .def_119 b.speed_y__AT1)))
(let ((.def_402 (* b.delta__AT1 .def_401)))
(let ((.def_139 (* g__AT0 g__AT0)))
(let ((.def_398 (* .def_139 b.delta__AT1)))
(let ((.def_399 (* b.delta__AT1 .def_398)))
(let ((.def_400 (* (- 1.0) .def_399)))
(let ((.def_403 (+ .def_400 .def_402)))
(let ((.def_383 (* .def_119 b.y__AT1)))
(let ((.def_404 (+ .def_383 .def_403)))
(let ((.def_409 (<= 0.0 .def_404)))
(let ((.def_361 (* g__AT0 b.speed_y__AT1)))
(let ((.def_406 (<= .def_398 .def_361)))
(let ((.def_410 (or .def_406 .def_409)))
(let ((.def_425 (and .def_410 .def_424)))
(let ((.def_363 (* b.speed_y__AT1 b.speed_y__AT1)))
(let ((.def_384 (+ .def_363 .def_383)))
(let ((.def_419 (<= .def_384 0.0 )))
(let ((.def_420 (not .def_419)))
(let ((.def_135 (<= 0.0 g__AT0)))
(let ((.def_136 (not .def_135)))
(let ((.def_421 (or .def_136 .def_420)))
(let ((.def_426 (or .def_421 .def_425)))
(let ((.def_388 (* g__AT0 b.y__AT1)))
(let ((.def_392 (<= .def_388 0.0 )))
(let ((.def_391 (<= .def_361 0.0 )))
(let ((.def_393 (and .def_391 .def_392)))
(let ((.def_427 (or .def_393 .def_426)))
(let ((.def_412 (<= .def_348 b.speed_y__AT1)))
(let ((.def_413 (not .def_412)))
(let ((.def_416 (or .def_413 .def_415)))
(let ((.def_405 (<= .def_404 0.0 )))
(let ((.def_407 (and .def_405 .def_406)))
(let ((.def_408 (or .def_136 .def_407)))
(let ((.def_411 (and .def_408 .def_410)))
(let ((.def_417 (and .def_411 .def_416)))
(let ((.def_395 (= .def_384 0.0 )))
(let ((.def_396 (and .def_136 .def_395)))
(let ((.def_389 (<= 0.0 .def_388)))
(let ((.def_127 (<= g__AT0 0.0 )))
(let ((.def_128 (not .def_127)))
(let ((.def_390 (and .def_128 .def_389)))
(let ((.def_394 (or .def_390 .def_393)))
(let ((.def_397 (or .def_394 .def_396)))
(let ((.def_418 (or .def_397 .def_417)))
(let ((.def_428 (and .def_418 .def_427)))
(let ((.def_385 (<= 0.0 .def_384)))
(let ((.def_386 (not .def_385)))
(let ((.def_102 (= g__AT0 0.0 )))
(let ((.def_387 (or .def_102 .def_386)))
(let ((.def_429 (or .def_387 .def_428)))
(let ((.def_376 (* b.speed_y__AT1 b.delta__AT1)))
(let ((.def_377 (+ b.y__AT1 .def_376)))
(let ((.def_378 (= .def_377 0.0 )))
(let ((.def_379 (not .def_378)))
(let ((.def_373 (* b.delta__AT1 .def_363)))
(let ((.def_368 (* b.y__AT1 b.speed_y__AT1)))
(let ((.def_374 (+ .def_368 .def_373)))
(let ((.def_375 (<= .def_374 0.0 )))
(let ((.def_380 (and .def_375 .def_379)))
(let ((.def_371 (= b.speed_y__AT1 0.0 )))
(let ((.def_369 (<= 0.0 .def_368)))
(let ((.def_364 (* b.speed_y__AT1 .def_363)))
(let ((.def_362 (* b.y__AT1 .def_361)))
(let ((.def_365 (+ .def_362 .def_364)))
(let ((.def_366 (<= .def_365 0.0 )))
(let ((.def_103 (not .def_102)))
(let ((.def_367 (or .def_103 .def_366)))
(let ((.def_370 (or .def_367 .def_369)))
(let ((.def_372 (or .def_370 .def_371)))
(let ((.def_381 (or .def_372 .def_380)))
(let ((.def_358 (<= 0.0 b.delta__AT1)))
(let ((.def_359 (not .def_358)))
(let ((.def_357 (<= 0.0 .def_356)))
(let ((.def_360 (or .def_357 .def_359)))
(let ((.def_382 (and .def_360 .def_381)))
(let ((.def_430 (and .def_382 .def_429)))
(let ((.def_326 (not b.EVENT.0__AT1)))
(let ((.def_324 (not b.EVENT.1__AT1)))
(let ((.def_345 (and .def_324 .def_326)))
(let ((.def_431 (and .def_345 .def_430)))
(let ((.def_432 (not .def_431)))
(let ((.def_436 (or .def_432 .def_435)))
(let ((.def_346 (not .def_345)))
(let ((.def_437 (or .def_346 .def_436)))
(let ((.def_38 (not b.counter.0__AT0)))
(let ((.def_338 (or b.counter.1__AT0 .def_38)))
(let ((.def_339 (or b.counter.2__AT0 .def_338)))
(let ((.def_41 (not b.counter.2__AT0)))
(let ((.def_36 (not b.counter.1__AT0)))
(let ((.def_39 (and .def_36 .def_38)))
(let ((.def_337 (or .def_39 .def_41)))
(let ((.def_340 (and .def_337 .def_339)))
(let ((.def_341 (or b.counter.3__AT0 .def_340)))
(let ((.def_334 (or .def_39 b.counter.2__AT0)))
(let ((.def_333 (or .def_36 .def_41)))
(let ((.def_335 (and .def_333 .def_334)))
(let ((.def_44 (not b.counter.3__AT0)))
(let ((.def_336 (or .def_44 .def_335)))
(let ((.def_342 (and .def_336 .def_341)))
(let ((.def_329 (<= 0.0 b.y__AT1)))
(let ((.def_71 (<= speed_loss__AT0 (/ 1 2))))
(let ((.def_68 (<= (/ 1 10) speed_loss__AT0)))
(let ((.def_72 (and .def_68 .def_71)))
(let ((.def_63 (<= g__AT0 10.0 )))
(let ((.def_62 (<= 8.0 g__AT0)))
(let ((.def_64 (and .def_62 .def_63)))
(let ((.def_73 (and .def_64 .def_72)))
(let ((.def_330 (and .def_73 .def_329)))
(let ((.def_327 (or .def_324 .def_326)))
(let ((.def_9 (not b.counter.0__AT1)))
(let ((.def_6 (not b.counter.1__AT1)))
(let ((.def_317 (or .def_6 .def_9)))
(let ((.def_321 (or b.counter.3__AT1 .def_317)))
(let ((.def_318 (or b.counter.2__AT1 .def_317)))
(let ((.def_4 (not b.counter.2__AT1)))
(let ((.def_316 (or .def_4 .def_9)))
(let ((.def_319 (and .def_316 .def_318)))
(let ((.def_14 (not b.counter.3__AT1)))
(let ((.def_320 (or .def_14 .def_319)))
(let ((.def_322 (and .def_320 .def_321)))
(let ((.def_328 (and .def_322 .def_327)))
(let ((.def_331 (and .def_328 .def_330)))
(let ((.def_93 (<= 0.0 b.delta__AT0)))
(let ((.def_57 (not b.EVENT.0__AT0)))
(let ((.def_55 (not b.EVENT.1__AT0)))
(let ((.def_79 (and .def_55 .def_57)))
(let ((.def_80 (not .def_79)))
(let ((.def_312 (or .def_80 .def_93)))
(let ((.def_313 (or b.EVENT.1__AT0 .def_312)))
(let ((.def_262 (= b.counter.0__AT1 b.counter.0__AT0)))
(let ((.def_260 (= b.counter.1__AT1 b.counter.1__AT0)))
(let ((.def_258 (= b.counter.2__AT1 b.counter.2__AT0)))
(let ((.def_257 (= b.counter.3__AT1 b.counter.3__AT0)))
(let ((.def_259 (and .def_257 .def_258)))
(let ((.def_261 (and .def_259 .def_260)))
(let ((.def_263 (and .def_261 .def_262)))
(let ((.def_309 (or .def_80 .def_263)))
(let ((.def_310 (or b.EVENT.1__AT0 .def_309)))
(let ((.def_269 (= b.x__AT1 b.x__AT0)))
(let ((.def_176 (= b.y__AT0 b.y__AT1)))
(let ((.def_303 (and .def_176 .def_269)))
(let ((.def_192 (= b.speed_x__AT0 b.speed_x__AT1)))
(let ((.def_304 (and .def_192 .def_303)))
(let ((.def_256 (= b.speed_y__AT0 b.speed_y__AT1)))
(let ((.def_305 (and .def_256 .def_304)))
(let ((.def_300 (= b.delta__AT0 0.0 )))
(let ((.def_301 (and .def_79 .def_300)))
(let ((.def_302 (not .def_301)))
(let ((.def_306 (or .def_302 .def_305)))
(let ((.def_307 (or b.EVENT.1__AT0 .def_306)))
(let ((.def_280 (= b.time__AT0 b.time__AT1)))
(let ((.def_292 (and .def_269 .def_280)))
(let ((.def_293 (and .def_176 .def_292)))
(let ((.def_294 (and .def_192 .def_293)))
(let ((.def_295 (and .def_256 .def_294)))
(let ((.def_296 (and .def_263 .def_295)))
(let ((.def_297 (or .def_55 .def_296)))
(let ((.def_283 (* (- 1.0) b.time__AT1)))
(let ((.def_286 (+ b.delta__AT0 .def_283)))
(let ((.def_287 (+ b.time__AT0 .def_286)))
(let ((.def_288 (= .def_287 0.0 )))
(let ((.def_289 (or .def_80 .def_288)))
(let ((.def_290 (or b.EVENT.1__AT0 .def_289)))
(let ((.def_281 (or .def_79 .def_280)))
(let ((.def_282 (or b.EVENT.1__AT0 .def_281)))
(let ((.def_291 (and .def_282 .def_290)))
(let ((.def_298 (and .def_291 .def_297)))
(let ((.def_276 (= .def_80 b.event_is_timed__AT1)))
(let ((.def_274 (= b.event_is_timed__AT0 .def_79)))
(let ((.def_277 (and .def_274 .def_276)))
(let ((.def_264 (and .def_256 .def_263)))
(let ((.def_216 (<= 0.0 b.speed_y__AT0)))
(let ((.def_217 (not .def_216)))
(let ((.def_215 (= b.y__AT0 0.0 )))
(let ((.def_218 (and .def_215 .def_217)))
(let ((.def_265 (or .def_218 .def_264)))
(let ((.def_233 (or .def_9 b.counter.0__AT0)))
(let ((.def_232 (or b.counter.0__AT1 .def_38)))
(let ((.def_234 (and .def_232 .def_233)))
(let ((.def_235 (and .def_6 .def_234)))
(let ((.def_236 (or b.counter.1__AT0 .def_235)))
(let ((.def_231 (or b.counter.1__AT1 .def_36)))
(let ((.def_237 (and .def_231 .def_236)))
(let ((.def_248 (and .def_4 .def_237)))
(let ((.def_249 (or b.counter.2__AT0 .def_248)))
(let ((.def_243 (and .def_6 .def_38)))
(let ((.def_244 (or b.counter.1__AT0 .def_243)))
(let ((.def_245 (and .def_231 .def_244)))
(let ((.def_246 (and b.counter.2__AT1 .def_245)))
(let ((.def_247 (or .def_41 .def_246)))
(let ((.def_250 (and .def_247 .def_249)))
(let ((.def_251 (and b.counter.3__AT1 .def_250)))
(let ((.def_252 (or b.counter.3__AT0 .def_251)))
(let ((.def_238 (and b.counter.2__AT1 .def_237)))
(let ((.def_239 (or b.counter.2__AT0 .def_238)))
(let ((.def_227 (or b.counter.1__AT1 b.counter.1__AT0)))
(let ((.def_225 (and .def_6 b.counter.0__AT1)))
(let ((.def_226 (or .def_36 .def_225)))
(let ((.def_228 (and .def_226 .def_227)))
(let ((.def_229 (and .def_4 .def_228)))
(let ((.def_230 (or .def_41 .def_229)))
(let ((.def_240 (and .def_230 .def_239)))
(let ((.def_241 (and .def_14 .def_240)))
(let ((.def_242 (or .def_44 .def_241)))
(let ((.def_253 (and .def_242 .def_252)))
(let ((.def_222 (* (- 1.0) b.speed_y__AT0)))
(let ((.def_220 (* (- 1.0) speed_loss__AT0)))
(let ((.def_221 (+ 1.0 .def_220)))
(let ((.def_223 (* .def_221 .def_222)))
(let ((.def_224 (= b.speed_y__AT1 .def_223)))
(let ((.def_254 (and .def_224 .def_253)))
(let ((.def_219 (not .def_218)))
(let ((.def_255 (or .def_219 .def_254)))
(let ((.def_266 (and .def_255 .def_265)))
(let ((.def_267 (and .def_176 .def_266)))
(let ((.def_268 (and .def_192 .def_267)))
(let ((.def_270 (and .def_268 .def_269)))
(let ((.def_271 (or .def_79 .def_270)))
(let ((.def_272 (or b.EVENT.1__AT0 .def_271)))
(let ((.def_203 (* b.delta__AT0 b.delta__AT0)))
(let ((.def_194 (* (- 1.0) g__AT0)))
(let ((.def_202 (* (/ 1 2) .def_194)))
(let ((.def_204 (* .def_202 .def_203)))
(let ((.def_206 (* (- 1.0) b.y__AT1)))
(let ((.def_209 (+ .def_206 .def_204)))
(let ((.def_112 (* b.speed_y__AT0 b.delta__AT0)))
(let ((.def_210 (+ .def_112 .def_209)))
(let ((.def_211 (+ b.y__AT0 .def_210)))
(let ((.def_212 (= .def_211 0.0 )))
(let ((.def_197 (* (- 1.0) b.speed_y__AT1)))
(let ((.def_195 (* b.delta__AT0 .def_194)))
(let ((.def_198 (+ .def_195 .def_197)))
(let ((.def_199 (+ b.speed_y__AT0 .def_198)))
(let ((.def_200 (= .def_199 0.0 )))
(let ((.def_184 (* (- 1.0) b.x__AT1)))
(let ((.def_188 (+ .def_184 b.x__AT0)))
(let ((.def_182 (* b.delta__AT0 b.speed_x__AT0)))
(let ((.def_189 (+ .def_182 .def_188)))
(let ((.def_190 (= .def_189 0.0 )))
(let ((.def_193 (and .def_190 .def_192)))
(let ((.def_201 (and .def_193 .def_200)))
(let ((.def_213 (and .def_201 .def_212)))
(let ((.def_214 (or .def_80 .def_213)))
(let ((.def_273 (and .def_214 .def_272)))
(let ((.def_278 (and .def_273 .def_277)))
(let ((.def_299 (and .def_278 .def_298)))
(let ((.def_308 (and .def_299 .def_307)))
(let ((.def_311 (and .def_308 .def_310)))
(let ((.def_314 (and .def_311 .def_313)))
(let ((.def_315 (and .def_55 .def_314)))
(let ((.def_332 (and .def_315 .def_331)))
(let ((.def_343 (and .def_332 .def_342)))
(let ((.def_177 (not .def_176)))
(let ((.def_82 (* g__AT0 b.delta__AT0)))
(let ((.def_164 (<= b.speed_y__AT0 .def_82)))
(let ((.def_165 (not .def_164)))
(let ((.def_86 (* 2.0 b.speed_y__AT0)))
(let ((.def_87 (* b.delta__AT0 .def_86)))
(let ((.def_83 (* b.delta__AT0 .def_82)))
(let ((.def_85 (* (- 1.0) .def_83)))
(let ((.def_88 (+ .def_85 .def_87)))
(let ((.def_89 (* 2.0 b.y__AT0)))
(let ((.def_91 (+ .def_89 .def_88)))
(let ((.def_156 (= .def_91 0.0 )))
(let ((.def_157 (not .def_156)))
(let ((.def_166 (or .def_157 .def_165)))
(let ((.def_143 (* b.speed_y__AT0 .def_119)))
(let ((.def_144 (* b.delta__AT0 .def_143)))
(let ((.def_140 (* b.delta__AT0 .def_139)))
(let ((.def_141 (* b.delta__AT0 .def_140)))
(let ((.def_142 (* (- 1.0) .def_141)))
(let ((.def_145 (+ .def_142 .def_144)))
(let ((.def_120 (* b.y__AT0 .def_119)))
(let ((.def_146 (+ .def_120 .def_145)))
(let ((.def_151 (<= 0.0 .def_146)))
(let ((.def_96 (* b.speed_y__AT0 g__AT0)))
(let ((.def_148 (<= .def_140 .def_96)))
(let ((.def_152 (or .def_148 .def_151)))
(let ((.def_167 (and .def_152 .def_166)))
(let ((.def_98 (* b.speed_y__AT0 b.speed_y__AT0)))
(let ((.def_121 (+ .def_98 .def_120)))
(let ((.def_161 (<= .def_121 0.0 )))
(let ((.def_162 (not .def_161)))
(let ((.def_163 (or .def_136 .def_162)))
(let ((.def_168 (or .def_163 .def_167)))
(let ((.def_125 (* b.y__AT0 g__AT0)))
(let ((.def_131 (<= .def_125 0.0 )))
(let ((.def_130 (<= .def_96 0.0 )))
(let ((.def_132 (and .def_130 .def_131)))
(let ((.def_169 (or .def_132 .def_168)))
(let ((.def_154 (<= .def_82 b.speed_y__AT0)))
(let ((.def_155 (not .def_154)))
(let ((.def_158 (or .def_155 .def_157)))
(let ((.def_147 (<= .def_146 0.0 )))
(let ((.def_149 (and .def_147 .def_148)))
(let ((.def_150 (or .def_136 .def_149)))
(let ((.def_153 (and .def_150 .def_152)))
(let ((.def_159 (and .def_153 .def_158)))
(let ((.def_134 (= .def_121 0.0 )))
(let ((.def_137 (and .def_134 .def_136)))
(let ((.def_126 (<= 0.0 .def_125)))
(let ((.def_129 (and .def_126 .def_128)))
(let ((.def_133 (or .def_129 .def_132)))
(let ((.def_138 (or .def_133 .def_137)))
(let ((.def_160 (or .def_138 .def_159)))
(let ((.def_170 (and .def_160 .def_169)))
(let ((.def_122 (<= 0.0 .def_121)))
(let ((.def_123 (not .def_122)))
(let ((.def_124 (or .def_102 .def_123)))
(let ((.def_171 (or .def_124 .def_170)))
(let ((.def_113 (+ b.y__AT0 .def_112)))
(let ((.def_114 (= .def_113 0.0 )))
(let ((.def_115 (not .def_114)))
(let ((.def_109 (* b.delta__AT0 .def_98)))
(let ((.def_105 (* b.y__AT0 b.speed_y__AT0)))
(let ((.def_110 (+ .def_105 .def_109)))
(let ((.def_111 (<= .def_110 0.0 )))
(let ((.def_116 (and .def_111 .def_115)))
(let ((.def_106 (<= 0.0 .def_105)))
(let ((.def_99 (* b.speed_y__AT0 .def_98)))
(let ((.def_97 (* b.y__AT0 .def_96)))
(let ((.def_100 (+ .def_97 .def_99)))
(let ((.def_101 (<= .def_100 0.0 )))
(let ((.def_104 (or .def_101 .def_103)))
(let ((.def_107 (or .def_104 .def_106)))
(let ((.def_33 (= b.speed_y__AT0 0.0 )))
(let ((.def_108 (or .def_33 .def_107)))
(let ((.def_117 (or .def_108 .def_116)))
(let ((.def_94 (not .def_93)))
(let ((.def_92 (<= 0.0 .def_91)))
(let ((.def_95 (or .def_92 .def_94)))
(let ((.def_118 (and .def_95 .def_117)))
(let ((.def_172 (and .def_118 .def_171)))
(let ((.def_173 (and .def_79 .def_172)))
(let ((.def_174 (not .def_173)))
(let ((.def_178 (or .def_174 .def_177)))
(let ((.def_179 (or .def_80 .def_178)))
(let ((.def_74 (<= 0.0 b.y__AT0)))
(let ((.def_75 (and .def_73 .def_74)))
(let ((.def_58 (or .def_55 .def_57)))
(let ((.def_48 (or .def_36 .def_38)))
(let ((.def_52 (or b.counter.3__AT0 .def_48)))
(let ((.def_49 (or b.counter.2__AT0 .def_48)))
(let ((.def_47 (or .def_38 .def_41)))
(let ((.def_50 (and .def_47 .def_49)))
(let ((.def_51 (or .def_44 .def_50)))
(let ((.def_53 (and .def_51 .def_52)))
(let ((.def_59 (and .def_53 .def_58)))
(let ((.def_76 (and .def_59 .def_75)))
(let ((.def_42 (and .def_39 .def_41)))
(let ((.def_45 (and .def_42 .def_44)))
(let ((.def_30 (= b.y__AT0 10.0 )))
(let ((.def_25 (= b.time__AT0 0.0 )))
(let ((.def_27 (and .def_25 b.event_is_timed__AT0)))
(let ((.def_31 (and .def_27 .def_30)))
(let ((.def_34 (and .def_31 .def_33)))
(let ((.def_46 (and .def_34 .def_45)))
(let ((.def_77 (and .def_46 .def_76)))
(let ((.def_17 (or b.counter.1__AT1 .def_9)))
(let ((.def_18 (or b.counter.2__AT1 .def_17)))
(let ((.def_10 (and .def_6 .def_9)))
(let ((.def_16 (or .def_4 .def_10)))
(let ((.def_19 (and .def_16 .def_18)))
(let ((.def_20 (or b.counter.3__AT1 .def_19)))
(let ((.def_11 (or b.counter.2__AT1 .def_10)))
(let ((.def_7 (or .def_4 .def_6)))
(let ((.def_12 (and .def_7 .def_11)))
(let ((.def_15 (or .def_12 .def_14)))
(let ((.def_21 (and .def_15 .def_20)))
(let ((.def_22 (not .def_21)))
(let ((.def_78 (and .def_22 .def_77)))
(let ((.def_180 (and .def_78 .def_179)))
(let ((.def_344 (and .def_180 .def_343)))
(let ((.def_438 (and .def_344 .def_437)))
.def_438)))))))))))))))))))))))))))))))))))))))))))))))))))))))))))))))))))))))))))))))))))))))))))))))))))))))))))))))))))))))))))))))))))))))))))))))))))))))))))))))))))))))))))))))))))))))))))))))))))))))))))))))))))))))))))))))))))))))))))))))))))))))))))))))))))))))))))))))))))))))))))))))))))))))))))))))))))))))))))))))))))))))))))))))))))))))))))))))))))))))))))))))))))))))))))))))))))))))
(check-sat)
(exit)
